JOBS = 1..4;
MACHINES = 1..3;
SPEED = 2;
time = array3d(JOBS,MACHINES,1..SPEED,[42,7,83,15,238,42,192,34,226,40,137,24,108,19,48,8,254,45,200,36,181,32,184,33]);
energy = array3d(JOBS,MACHINES,1..SPEED,[65,93,43,86,9,65,14,71,10,67,25,78,33,82,61,92,7,63,13,69,16,72,15,71]);
precedence = array2d(JOBS,MACHINES,[2,0,1,2,0,1,2,1,0,1,0,2]);
ME = 1;
TE = 134;
st_old = array2d(JOBS,MACHINES,[262,120,215,228,0,45,120,72,0,72,40,182]);
SpeedScaling = array2d(JOBS,MACHINES,[2,1,2,2,2,1,1,1,2,2,2,2]);
